(set-logic HORN)
(declare-fun !inv0 (Int (Array Int Int) Int ) Bool)
(declare-fun !inv1 (Int (Array Int Int) Int Int Int ) Bool)
(assert (forall ((N@0 Int)(a@0 (Array Int Int))(i@0 Int)) (=> (and (> |N@0| 0) (= |i@0| 0)) (!inv0 |N@0| |a@0| |i@0|))))
(assert (forall ((N@0 Int)(k@0 Int)(a@0 (Array Int Int))(i@0 Int)(s@0 Int)) (=> (and (!inv0 |N@0| |a@0| |i@0|) (< |i@0| |N@0|) (= |k@0| |i@0|) (= |s@0| (+ |i@0| 1))) (!inv1 |N@0| |a@0| |i@0| |k@0| |s@0|))))
(assert (forall ((N@0 Int)(a@0 (Array Int Int))(i@0 Int)) (=> (and (!inv0 |N@0| |a@0| |i@0|) (not (< |i@0| |N@0|)) (not (forall ((x@0 Int)(y@0 Int)) (=> (and (<= 0 |x@0|) (< |x@0| |N@0|)) (=> (and (<= (+ |x@0| 1) |y@0|) (< |y@0| |N@0|)) (<= (select |a@0| |x@0|) (select |a@0| |y@0|))))))) false)))
(assert (forall ((N@0 Int)(a@0 (Array Int Int))(i@0 Int)(k@0 Int)(s@0 Int)(k@1 Int)(s@1 Int)) (=> (and (!inv1 |N@0| |a@0| |i@0| |k@0| |s@1|) (= |k@1| (+ |k@0| 1)) (< |k@0| |N@0|) (> (select |a@0| |k@0|) (select |a@0| |s@1|)) (= |s@0| |k@0|)) (!inv1 |N@0| |a@0| |i@0| |k@1| |s@0|))))
(assert (forall ((N@0 Int)(a@0 (Array Int Int))(i@0 Int)(k@0 Int)(s@0 Int)(k@1 Int)) (=> (and (!inv1 |N@0| |a@0| |i@0| |k@0| |s@0|) (= |k@1| (+ |k@0| 1)) (< |k@0| |N@0|) (not (> (select |a@0| |k@0|) (select |a@0| |s@0|)))) (!inv1 |N@0| |a@0| |i@0| |k@1| |s@0|))))
(assert (forall ((N@0 Int)(a@0 (Array Int Int))(i@0 Int)(k@0 Int)(s@0 Int)(a@1 (Array Int Int))(tmp@0 Int)(a@2 (Array Int Int))) (=> (and (!inv1 |N@0| |a@1| |i@0| |k@0| |s@0|) (not (forall ((x@0 Int)(y@0 Int)) (=> (and (<= 0 |x@0|) (< |x@0| |i@0|)) (=> (and (<= (+ |x@0| 1) |y@0|) (< |y@0| |i@0|)) (<= (select |a@0| |x@0|) (select |a@0| |y@0|)))))) (not (< |k@0| |N@0|)) (not (= |s@0| |i@0|)) (= |tmp@0| (select |a@1| |s@0|)) (= |a@2| (store |a@1| |s@0| (select |a@1| |i@0|))) (= |a@0| (store |a@2| |i@0| |tmp@0|))) false)))
(assert (forall ((N@0 Int)(a@0 (Array Int Int))(i@0 Int)(k@0 Int)(s@0 Int)) (=> (and (!inv1 |N@0| |a@0| |i@0| |k@0| |s@0|) (not (forall ((x@0 Int)(y@0 Int)) (=> (and (<= 0 |x@0|) (< |x@0| |i@0|)) (=> (and (<= (+ |x@0| 1) |y@0|) (< |y@0| |i@0|)) (<= (select |a@0| |x@0|) (select |a@0| |y@0|)))))) (not (< |k@0| |N@0|)) (not (not (= |s@0| |i@0|)))) false)))
(assert (forall ((N@0 Int)(a@0 (Array Int Int))(i@0 Int)(k@0 Int)(s@0 Int)(a@1 (Array Int Int))(a@2 (Array Int Int))(tmp@0 Int)) (=> (and (!inv1 |N@0| |a@1| |i@0| |k@0| |s@0|) (forall ((x@0 Int)(y@0 Int)) (=> (and (<= 0 |x@0|) (< |x@0| |i@0|)) (=> (and (<= (+ |x@0| 1) |y@0|) (< |y@0| |i@0|)) (<= (select |a@0| |x@0|) (select |a@0| |y@0|))))) (not (forall ((z@0 Int)) (=> (and (<= (+ |i@0| 1) |z@0|) (< |z@0| |N@0|)) (>= (select |a@0| |z@0|) (select |a@0| |i@0|))))) (not (< |k@0| |N@0|)) (not (= |s@0| |i@0|)) (= |tmp@0| (select |a@1| |s@0|)) (= |a@2| (store |a@1| |s@0| (select |a@1| |i@0|))) (= |a@0| (store |a@2| |i@0| |tmp@0|))) false)))
(assert (forall ((N@0 Int)(a@0 (Array Int Int))(i@0 Int)(k@0 Int)(s@0 Int)) (=> (and (!inv1 |N@0| |a@0| |i@0| |k@0| |s@0|) (forall ((x@0 Int)(y@0 Int)) (=> (and (<= 0 |x@0|) (< |x@0| |i@0|)) (=> (and (<= (+ |x@0| 1) |y@0|) (< |y@0| |i@0|)) (<= (select |a@0| |x@0|) (select |a@0| |y@0|))))) (not (forall ((z@0 Int)) (=> (and (<= (+ |i@0| 1) |z@0|) (< |z@0| |N@0|)) (>= (select |a@0| |z@0|) (select |a@0| |i@0|))))) (not (< |k@0| |N@0|)) (not (not (= |s@0| |i@0|)))) false)))
(assert (forall ((N@0 Int)(a@0 (Array Int Int))(i@0 Int)(k@0 Int)(s@0 Int)(i@1 Int)) (=> (and (!inv1 |N@0| |a@0| |i@0| |k@0| |s@0|) (forall ((x@0 Int)(y@0 Int)) (=> (and (<= 0 |x@0|) (< |x@0| |i@0|)) (=> (and (<= (+ |x@0| 1) |y@0|) (< |y@0| |i@0|)) (<= (select |a@0| |x@0|) (select |a@0| |y@0|))))) (forall ((z@0 Int)) (=> (and (<= (+ |i@0| 1) |z@0|) (< |z@0| |N@0|)) (>= (select |a@0| |z@0|) (select |a@0| |i@0|)))) (= |i@1| (+ |i@0| 1)) (not (< |k@0| |N@0|)) (not (not (= |s@0| |i@0|)))) (!inv0 |N@0| |a@0| |i@1|))))
(assert (forall ((N@0 Int)(a@0 (Array Int Int))(i@0 Int)(k@0 Int)(s@0 Int)(i@1 Int)(a@2 (Array Int Int))(a@1 (Array Int Int))(tmp@0 Int)) (=> (and (!inv1 |N@0| |a@1| |i@0| |k@0| |s@0|) (forall ((x@0 Int)(y@0 Int)) (=> (and (<= 0 |x@0|) (< |x@0| |i@0|)) (=> (and (<= (+ |x@0| 1) |y@0|) (< |y@0| |i@0|)) (<= (select |a@0| |x@0|) (select |a@0| |y@0|))))) (forall ((z@0 Int)) (=> (and (<= (+ |i@0| 1) |z@0|) (< |z@0| |N@0|)) (>= (select |a@0| |z@0|) (select |a@0| |i@0|)))) (= |i@1| (+ |i@0| 1)) (not (< |k@0| |N@0|)) (not (= |s@0| |i@0|)) (= |tmp@0| (select |a@1| |s@0|)) (= |a@2| (store |a@1| |s@0| (select |a@1| |i@0|))) (= |a@0| (store |a@2| |i@0| |tmp@0|))) (!inv0 |N@0| |a@0| |i@1|))))
(check-sat)